 ! --------------------------------------------------- CP Optimizer 22.1.1.0 --
 ! Satisfiability problem - 26340 variables, 231275 constraints
 ! Presolve      : 16200 extractables eliminated
 ! TimeLimit            = 3600
 ! Workers              = 1
 ! Initial process time : 2.48s (2.46s extraction + 0.02s propagation)
 !  . Log search space  : 272627.7 (before), 272627.7 (after)
 !  . Memory usage      : 182.6 MB (before), 182.6 MB (after)
 ! Using sequential search.
 ! ----------------------------------------------------------------------------
 !               Branches  Non-fixed            Branch decision
                     1177      25784        F          presenceOf(copy_trips:18_0)
                     2000      15257                   presenceOf(copy_lane_parking:3_8)
                     3000       9482        F         !presenceOf(copy_trips:25_0)
                     4000       9479                  !presenceOf(copy_trips:8_197)
                     5000       9452                  !presenceOf(copy_trips:21_197)
                     6000       9452                   presenceOf(copy_lane_parking:1_39)
                     7000       9479                   presenceOf(copy_bus_parking:27_233)
                     8000       9482                  !presenceOf(copy_trips:7_8)
                     9000      22952                   presenceOf(copy_lane_parking:2_183)
                    10000       9482        F          presenceOf(copy_bus_parking:25_197)
                    11000       9482                   presenceOf(copy_lane_parking:1_64)
                    12000      15654                   presenceOf(copy_bus_parking:22_224)
                    13000      15373                   presenceOf(copy_trips:14_3)
                    14000      16152                  !presenceOf(copy_bus_parking:24_69)
                    15000      16352                  !presenceOf(copy_bus_parking:28_268)
                    16000      16473                   presenceOf(copy_lane_parking:3_118)
                    17000      16935                  !presenceOf(copy_trips:27_21)
                    18000       9482        F          presenceOf(copy_trips:3_197)
                    19000       9482                  !presenceOf(copy_trips:5_68)
                    20000      16932        F          presenceOf(copy_trips:12_269)
 ! Time = 19.87s, Average fail depth = 332, Memory usage = 551.5 MB
 !               Branches  Non-fixed            Branch decision
                    21000      16932                  !presenceOf(copy_trips:11_268)
                    22000      17024        F          presenceOf(copy_bus_parking:25_267)
                    23000      16938                  !presenceOf(copy_trips:5_268)
                    24000      16938                  !presenceOf(copy_bus_parking:25_266)
                    25000      16938                   presenceOf(copy_lane_parking:2_102)
                    26000      16932                   presenceOf(copy_lane_parking:4_209)
                    27000      23751                  !presenceOf(copy_trips:3_2)
                    28000      22830                  !presenceOf(copy_trips:4_2)
                    29000      22788                  !presenceOf(copy_trips:18_2)
                    30000      22800        F          presenceOf(copy_trips:1_3)
                    31000      22797                  !presenceOf(copy_trips:23_4)
                    32000      16938                   presenceOf(copy_lane_parking:1_62)
                    33000      23864                  !presenceOf(copy_trips:17_0)
                    34000      23401                  !presenceOf(copy_bus_parking:13_2)
                    35000      23399                  !presenceOf(copy_bus_parking:12_2)
                    36000      16944        F          presenceOf(copy_bus_parking:8_269)
                    37000      16941                  !presenceOf(copy_bus_parking:25_53)
                    38000      16932                  !presenceOf(copy_trips:4_269)
                    39000      16932                   presenceOf(copy_lane_parking:3_61)
                    40000       9485        F          presenceOf(copy_bus_parking:13_10)
 ! Time = 32.40s, Average fail depth = 325, Memory usage = 551.5 MB
 !               Branches  Non-fixed            Branch decision
                    41000       9366                  !presenceOf(copy_trips:15_196)
                    42000       9366                  !presenceOf(copy_bus_parking:14_269)
                    43000      16917                   presenceOf(copy_bus_parking:28_263)
                    44000      21360        F          presenceOf(copy_bus_parking:17_251)
                    45000      21360                  !presenceOf(copy_bus_parking:13_238)
                    46000      21360                  !presenceOf(copy_trips:20_241)
                    47000      16944                   presenceOf(copy_lane_parking:4_268)
                    48000       9485                   presenceOf(copy_lane_parking:1_158)
                    49000      17018                  !presenceOf(copy_trips:11_50)
                    50000      18872                   presenceOf(copy_lane_parking:4_55)
                    51000       9208        F          presenceOf(copy_bus_parking:3_180)
                    52000       9208                  !presenceOf(copy_trips:8_0)
                    53000      15960                   presenceOf(copy_lane_parking:3_113)
                    54000      15582                  !presenceOf(copy_bus_parking:20_72)
                    55000      15582                  !presenceOf(copy_bus_parking:15_72)
                    56000      15582        F         !presenceOf(copy_bus_parking:3_72)
                    57000      15582                  !presenceOf(copy_bus_parking:8_0)
                    58000      16273                   presenceOf(copy_trips:17_5)
                    59000      16273        F          presenceOf(copy_trips:16_5)
                    60000      16273        F          presenceOf(copy_trips:16_5)
 ! Time = 50.19s, Average fail depth = 336, Memory usage = 553.4 MB
 !               Branches  Non-fixed            Branch decision
                    61000      16273                  !presenceOf(copy_trips:1_5)
                    62000      16273                   presenceOf(copy_trips:9_5)
                    63000      15933        F          presenceOf(copy_trips:0_5)
                    64000      15647        F          presenceOf(copy_trips:1_5)
                    65000      15647        F          presenceOf(copy_trips:12_5)
                    66000      15599        F          presenceOf(copy_trips:3_5)
                    67000      15599        F          presenceOf(copy_trips:16_5)
                    68000      15647                  !presenceOf(copy_bus_parking:23_6)
                    69000      15623        F          presenceOf(copy_trips:5_5)
                    70000      15611                   presenceOf(copy_trips:2_236)
                    71000       9485                  !presenceOf(copy_trips:18_196)
                    72000       9485                  !presenceOf(copy_trips:24_96)
                    73000      14069        F          presenceOf(copy_trips:1_268)
                    74000      16935                  !presenceOf(copy_bus_parking:9_45)
                    75000      15391                  !presenceOf(copy_trips:9_70)
                    76000      15391        F          presenceOf(copy_trips:4_37)
                    77000      15391                  !presenceOf(copy_trips:6_37)
                    78000      15391                   presenceOf(copy_lane_parking:1_171)
                    79000      15579        F         !presenceOf(copy_bus_parking:1_3)
                    80000      15427        F          presenceOf(copy_trips:23_4)
 ! Time = 64.44s, Average fail depth = 344, Memory usage = 555.3 MB
 !               Branches  Non-fixed            Branch decision
                    81000      15436                   presenceOf(copy_trips:10_4)
                    82000      15427                  !presenceOf(copy_trips:3_4)
                    83000      15423        F          presenceOf(copy_trips:23_4)
                    84000      15432        F          presenceOf(copy_trips:2_4)
                    85000      15423        F          presenceOf(copy_bus_parking:3_3)
                    86000      15441                  !presenceOf(copy_trips:21_4)
                    87000      15557                  !presenceOf(copy_trips:23_4)
                    88000      15469                  !presenceOf(copy_bus_parking:23_9)
                    89000      15460                   presenceOf(copy_trips:15_4)
                    90000      15459                   presenceOf(copy_trips:15_4)
                    91000      15460                   presenceOf(copy_trips:6_4)
                    92000      15487                   presenceOf(copy_lane_parking:0_248)
                    93000      19645        F          presenceOf(copy_trips:20_35)
                    94000      19645        F          presenceOf(copy_trips:2_35)
                    95000      19645                  !presenceOf(copy_trips:12_35)
                    96000      19648                   presenceOf(copy_trips:4_48)
                    97000      19648        F          presenceOf(copy_trips:12_35)
                    98000      19645        F          presenceOf(copy_trips:15_35)
                    99000      19645                  !presenceOf(copy_trips:10_48)
                     100k      19645                  !presenceOf(copy_trips:12_35)
 ! Time = 103.63s, Average fail depth = 345, Memory usage = 555.3 MB
 !               Branches  Non-fixed            Branch decision
                     101k      19648        F         !presenceOf(copy_trips:25_35)
                     102k      19645        F          presenceOf(copy_trips:2_35)
                     103k      19645                  !presenceOf(copy_trips:7_35)
                     104k      19648        F          presenceOf(copy_trips:7_35)
                     105k      19203                   presenceOf(copy_lane_parking:2_68)
                     106k      19235                  !presenceOf(copy_bus_parking:14_27)
                     107k      19235                   presenceOf(copy_trips:27_81)
                     108k      16310        F          presenceOf(copy_trips:1_37)
                     109k      16310                  !presenceOf(copy_bus_parking:14_268)
                     110k       9485        F          presenceOf(copy_bus_parking:3_196)
                     111k       9485                   presenceOf(copy_lane_parking:0_144)
                     112k      16941        F          presenceOf(copy_trips:10_268)
                     113k       9482                   presenceOf(copy_lane_parking:4_191)
                     114k      21034                   presenceOf(copy_trips:17_35)
                     115k      18248                   presenceOf(copy_trips:5_243)
                     116k      15983                  !presenceOf(copy_bus_parking:3_84)
                     117k      15983        F          presenceOf(copy_bus_parking:14_19)
                     118k      15983                  !presenceOf(copy_bus_parking:15_84)
                     119k      15983                   presenceOf(copy_lane_parking:0_166)
                     120k      16947                   presenceOf(copy_lane_parking:0_25)
 ! Time = 141.57s, Average fail depth = 343, Memory usage = 555.3 MB
 !               Branches  Non-fixed            Branch decision
                     121k      18373                   presenceOf(copy_trips:29_84)
                     122k      11652                   presenceOf(copy_trips:29_264)
                     123k      16938                   presenceOf(copy_lane_parking:1_237)
                     124k      17112                   presenceOf(copy_lane_parking:4_248)
                     125k      16929                   presenceOf(copy_trips:3_116)
                     126k      16838                  !presenceOf(copy_bus_parking:17_267)
                     127k      16817                   presenceOf(copy_bus_parking:4_224)
                     128k       9479        F          presenceOf(copy_trips:17_196)
                     129k       9479                  !presenceOf(copy_trips:6_196)
                     130k       9479        F          presenceOf(copy_trips:5_196)
                     131k       9479                  !presenceOf(copy_trips:6_26)
                     132k      18113                  !presenceOf(copy_trips:6_26)
                     133k      18113                  !presenceOf(copy_trips:27_26)
                     134k      18142                   presenceOf(copy_lane_parking:0_174)
                     135k      19588                  !presenceOf(copy_trips:1_46)
                     136k       9288                  !presenceOf(copy_trips:1_107)
 *                   136k  162.70s                   -
 ! ----------------------------------------------------------------------------
 ! Search completed, 1 solution found.
 ! ----------------------------------------------------------------------------
 ! Number of branches     : 136869
 ! Number of fails        : 52503
 ! Total memory usage     : 628.9 MB (612.8 MB CP Optimizer + 16.1 MB Concert)
 ! Time spent in solve    : 162.70s (160.24s engine + 2.46s extraction)
 ! Search speed (br. / s) : 854.2
 ! ----------------------------------------------------------------------------
